                   MoS2-WS2(0) 0.00000
  1.0000
      3.185899972900      0.000000000000      0.000000000000
     -1.592949986500      2.759070310500      0.000000000000
      0.000000000000      0.000000000000     25.007999420200
   Mo   S    W 
    1    4    1
C
     0.000000000     1.839380262     7.291635681
     1.592950034     0.919690131     5.731730601
     1.592950034     0.919690131     8.850153636
     0.000000000     1.839380262    11.890537042
     0.000000000     1.839380262    15.016625471
     1.592950034     0.919690131    13.452031104
